
22 28 21 22 21 12 15 28 22 28 4 28 23 23 28 7 23 14 22 0 7 21 5 0 23 7 22 14 4 21 4 4 4 21 28 12 8 8 21 15 7 8 12 4 8 14 8 21 14 14 0 22 21 21 8 12 7 8 22 7 4 0 7 8 8 12 5 14 28 12 7 12 4 8 23 23 8 23 8 22 23 0 8 7 4 23 4 5 22 7 28 4 7 7 0 8 28 12 0 28 28 15 12 7 4 0 4 21 22 8 14 4 22 12 12 8 28 7 14 8 14 7 28 4 4 21 21 12 14 0 28 21 7 14 23 8 23 8 28 14 12 22 12 12 7 5 21 15 22 7 0 0 23 0 8 28 5 15 8 23 23 0 23 0 5 28 5 4 23 21 5 8 28 14 4 0 0 14 4 14 5 21 21 28 12 8 28 23 0 21 21 21 12 4 7 12 7 15 23 14 
